2054590
8 15 67784
15 19 105167
19 4 238490
4 16 223221
16 10 21151
10 6 253563
6 20 207524
20 11 34793
11 12 123742
12 9 50022
9 7 126907
7 1 35813
1 2 106843
2 3 14476
3 17 20583
17 13 27808
13 5 141281
5 18 90145
18 14 103707
14 8 61570
